20
1 256 666
2 884 393
3 766 82
4 664 56
5 430 227
6 438 394
7 337 533
8 118 969
9 795 571
10 741 403
11 472 489
12 259 136
13 850 292
14 159 741
15 208 202
16 185 753
17 864 210
18 768 950
19 255 292
20 806 658
